g3 0 1 0	# problem ex6_2_11
 3 1 1 0 1	# vars, constraints, objectives, ranges, eqns
 0 1	# nonlinear constraints, objectives
 0 0	# network constraints: nonlinear, linear
 0 3 0	# nonlinear vars in constraints, objectives, both
 0 0 0 1	# linear network variables; functions; arith, flags
 0 0 0 0 0	# discrete variables: binary, integer, nonlinear (b,c,o)
 3 3	# nonzeros in Jacobian, gradients
 0 0	# max name lengths: constraints, variables
 0 0 0 0 0	# common exprs: b,c,o,c1,o1
b
0 1e-06 1
0 1e-06 1
0 1e-06 1
x3
0 0.00565
1 0.99054
2 0.00381
r
4 1
C0
n0
O0 0
o54
14
o2
o54
3
o2
n15.3261663216011
v0
o2
n23.2043471859416
v1
o2
n6.69678129464404
v2
o43
o54
3
o2
n2.1055
v0
o2
n3.1878
v1
o2
n0.92
v2
o2
o2
n6.4661663216011
v0
o43
o3
v0
o54
3
o2
n2.1055
v0
o2
n3.1878
v1
o2
n0.92
v2
o2
o2
n12.2043471859416
v1
o43
o3
v1
o54
3
o2
n2.1055
v0
o2
n3.1878
v1
o2
n0.92
v2
o2
o2
n0.696781294644034
v2
o43
o3
v2
o54
3
o2
n2.1055
v0
o2
n3.1878
v1
o2
n0.92
v2
o2
o2
n9.86
v0
o43
o3
v0
o54
3
o2
n1.972
v0
o2
n2.4
v1
o2
n1.4
v2
o2
o2
n12
v1
o43
o3
v1
o54
3
o2
n1.972
v0
o2
n2.4
v1
o2
n1.4
v2
o2
o2
n7
v2
o43
o3
v2
o54
3
o2
n1.972
v0
o2
n2.4
v1
o2
n1.4
v2
o2
o54
3
o2
n1.972
v0
o2
n2.4
v1
o2
n1.4
v2
o43
o54
3
o2
n1.972
v0
o2
n2.4
v1
o2
n1.4
v2
o2
o2
n1.972
v0
o43
o3
v0
o54
3
o2
n1.972
v0
o2
n0.283910843616504
v1
o2
n3.02002220174195
v2
o2
o2
n2.4
v1
o43
o3
v1
o54
3
o2
n1.45991339466884
v0
o2
n2.4
v1
o2
n0.415073537580851
v2
o2
o2
n1.4
v2
o43
o3
v2
o54
3
o2
n0.602183324335333
v0
o2
n0.115623371371275
v1
o2
n1.4
v2
o16
o2
o2
n17.2981663216011
v0
o43
v0
o16
o2
o2
n25.6043471859416
v1
o43
v1
o16
o2
o2
n8.09678129464404
v2
o43
v2
k2
1
2
J0 3
0 1
1 1
2 1
G0 3
0 1.04055250396734
1 -2.24199441248417
2 3.1618173099828
